Version identifier: 12.10.0.0 | 2019-11-26 | 843d4de
CPXPARAM_LPMethod                                4
CPXPARAM_Threads                                 1
CPXPARAM_SolutionType                            2
CPXPARAM_TimeLimit                               10000
Tried aggregator 1 time.
LP Presolve eliminated 26281 rows and 1 columns.
Aggregator did 26284 substitutions.
Reduced LP has 225029 rows, 128693 columns, and 683844 nonzeros.
Presolve time = 1.48 sec. (426.09 ticks)
Parallel mode: none, using 1 thread for barrier

***NOTE: Found 19 dense columns.

Number of nonzeros in lower triangle of A*A' = 994459
Using Approximate Minimum Degree ordering
Total time for automatic ordering = 0.46 sec. (88.84 ticks)
Summary statistics for Cholesky factor:
  Rows in Factor            = 225048
  Integer space required    = 680323
  Total non-zeros in factor = 3230143
  Total FP ops to factor    = 81761163
 Itn      Primal Obj        Dual Obj  Prim Inf Upper Inf  Dual Inf Inf Ratio
   0   1.9456130e+05   6.0000000e+02  1.25e+06  0.00e+00  2.16e+06  1.00e+00
   1   2.1472246e+05   1.4775124e+05  1.26e+05  0.00e+00  6.91e+05  1.44e-01
   2   1.3041177e+05   1.2056018e+05  1.86e+04  0.00e+00  1.01e+05  1.25e+00
   3   6.6463732e+04   5.8353810e+04  5.43e+03  0.00e+00  2.30e+04  4.00e+00
   4   4.6634573e+04   3.8572227e+04  2.26e+03  0.00e+00  5.37e+03  1.26e+01
   5   4.4872049e+04   3.6615079e+04  1.98e+03  0.00e+00  3.65e+03  1.55e+01
   6   4.2860967e+04   3.6116699e+04  1.63e+03  0.00e+00  3.09e+03  1.77e+01
   7   4.1413790e+04   3.5406150e+04  1.37e+03  0.00e+00  2.20e+03  2.25e+01
   8   3.8782305e+04   3.4397261e+04  9.30e+02  0.00e+00  1.15e+03  3.74e+01
   9   3.7253237e+04   3.3823325e+04  6.76e+02  0.00e+00  6.13e+02  6.38e+01
  10   3.5263187e+04   3.3527844e+04  3.57e+02  0.00e+00  3.81e+02  9.84e+01
  11   3.5109520e+04   3.3497604e+04  3.30e+02  0.00e+00  3.45e+02  1.08e+02
  12   3.4897820e+04   3.3420714e+04  2.93e+02  0.00e+00  2.48e+02  1.48e+02
  13   3.4408549e+04   3.3364811e+04  2.09e+02  0.00e+00  1.85e+02  1.95e+02
  14   3.4022073e+04   3.3352735e+04  1.40e+02  0.00e+00  1.69e+02  2.16e+02
  15   3.3956130e+04   3.3331239e+04  1.28e+02  0.00e+00  1.31e+02  2.80e+02
  16   3.3880543e+04   3.3327562e+04  1.15e+02  0.00e+00  1.27e+02  2.90e+02
  17   3.3761461e+04   3.3318840e+04  9.34e+01  0.00e+00  1.13e+02  3.29e+02
  18   3.3760671e+04   3.3318378e+04  9.33e+01  0.00e+00  1.12e+02  3.30e+02
  19   3.3753684e+04   3.3319136e+04  9.07e+01  0.00e+00  1.12e+02  3.31e+02
  20   3.3719719e+04   3.3300665e+04  8.43e+01  0.00e+00  7.00e+01  5.41e+02
  21   3.3605119e+04   3.3272521e+04  6.45e+01  0.00e+00  4.09e+01  9.03e+02
  22   3.3469901e+04   3.3259383e+04  4.11e+01  0.00e+00  2.75e+01  1.28e+03
  23   3.3402650e+04   3.3249556e+04  2.91e+01  0.00e+00  1.41e+01  2.36e+03
  24   3.3329722e+04   3.3245276e+04  1.61e+01  0.00e+00  8.13e+00  3.73e+03
  25   3.3328245e+04   3.3245354e+04  1.58e+01  0.00e+00  7.72e+00  3.91e+03
  26   3.3327743e+04   3.3245189e+04  1.57e+01  0.00e+00  7.69e+00  3.92e+03
  27   3.3323818e+04   3.3245261e+04  1.50e+01  0.00e+00  7.44e+00  4.04e+03
  28   3.3322572e+04   3.3245236e+04  1.48e+01  0.00e+00  7.40e+00  4.06e+03
  29   3.3321927e+04   3.3245328e+04  1.46e+01  0.00e+00  7.33e+00  4.10e+03
  30   3.3311890e+04   3.3246036e+04  1.25e+01  0.00e+00  6.39e+00  4.64e+03
  31   3.3299871e+04   3.3246159e+04  1.02e+01  0.00e+00  5.02e+00  5.79e+03
  32   3.3294089e+04   3.3246176e+04  9.13e+00  0.00e+00  4.69e+00  6.16e+03
  33   3.3284654e+04   3.3246165e+04  7.33e+00  0.00e+00  3.29e+00  8.57e+03
  34   3.3276951e+04   3.3246152e+04  5.87e+00  0.00e+00  2.66e+00  1.04e+04
  35   3.3263104e+04   3.3246154e+04  3.23e+00  0.00e+00  1.98e+00  1.36e+04
  36   3.3257339e+04   3.3246347e+04  2.08e+00  0.00e+00  1.49e+00  1.81e+04
  37   3.3256229e+04   3.3246412e+04  1.86e+00  0.00e+00  1.33e+00  2.04e+04
  38   3.3252623e+04   3.3246458e+04  1.16e+00  0.00e+00  9.81e-01  2.81e+04
  39   3.3251562e+04   3.3246461e+04  9.60e-01  0.00e+00  9.17e-01  3.02e+04
  40   3.3250267e+04   3.3246471e+04  7.12e-01  0.00e+00  8.17e-01  3.43e+04
  41   3.3249650e+04   3.3246491e+04  5.90e-01  0.00e+00  7.28e-01  3.90e+04
  42   3.3248730e+04   3.3246492e+04  4.18e-01  0.00e+00  6.29e-01  4.61e+04
  43   3.3247847e+04   3.3246484e+04  2.56e-01  0.00e+00  5.06e-01  5.92e+04
  44   3.3247752e+04   3.3246473e+04  2.39e-01  0.00e+00  4.20e-01  7.37e+04
  45   3.3247134e+04   3.3246447e+04  1.32e-01  0.00e+00  3.11e-01  1.05e+05
  46   3.3246881e+04   3.3246408e+04  9.21e-02  0.00e+00  2.31e-01  1.47e+05
  47   3.3246843e+04   3.3246396e+04  8.61e-02  0.00e+00  2.05e-01  1.68e+05
  48   3.3246705e+04   3.3246383e+04  6.40e-02  0.00e+00  1.74e-01  2.04e+05
  49   3.3246647e+04   3.3246352e+04  5.54e-02  0.00e+00  1.26e-01  3.00e+05
  50   3.3246587e+04   3.3246293e+04  4.69e-02  0.00e+00  5.09e-02  9.23e+05
  51   3.3246431e+04   3.3246273e+04  2.78e-02  0.00e+00  3.80e-02  1.22e+06
  52   3.3246413e+04   3.3246270e+04  2.55e-02  0.00e+00  3.58e-02  1.30e+06
  53   3.3246318e+04   3.3246232e+04  1.37e-02  0.00e+00  1.02e-02  4.61e+06
  54   3.3246230e+04   3.3246218e+04  2.60e-03  0.00e+00  1.98e-03  2.26e+07
  55   3.3246216e+04   3.3246215e+04  2.79e-04  0.00e+00  1.14e-04  3.92e+08
Barrier time = 18.26 sec. (10857.18 ticks)

Total time on 1 threads = 18.26 sec. (10857.18 ticks)
Solver name: CPLEX
Solve time: 18.273169359
Termination status: OPTIMAL
Result count: 1
Primal status: FEASIBLE_POINT
Dual status: FEASIBLE_POINT
